name="r26";
nr_vertices=284;
nr_edges=3629;
neighborhoods=[{1,2,3,4,5,6,7,8,9,10,11,12,13,14,32,48,64,75,103,117,131,166,180,191,215,230,270},{0,2,3,4,5,6,7,8,9,10,11,12,13,16,34,76,105,118,181,193,204,232,256,271},{0,1,3,4,5,6,7,8,9,10,11,12,13,17,50,77,90,106,119,168,182,205,217,233,243,257},{0,1,2,4,5,6,7,8,9,10,11,12,13,18,35,51,78,91,107,120,132,154,169,183,194,206,218},{0,1,2,3,5,6,7,8,9,10,11,12,13,20,53,65,80,108,122,134,143,156,185,195,207,220,245,259,273},{0,1,2,3,4,6,7,8,9,10,11,12,13,66,81,93,144,157,171,196,208,246,260,274},{0,1,2,3,4,5,7,8,9,10,11,12,13,22,38,55,68,82,110,135,158,173,186,209,222,236,248,262},{0,1,2,3,4,5,6,8,9,10,11,12,13,24,39,57,83,112,137,147,175,187,198,211,223,237,277},{0,1,2,3,4,5,6,7,9,10,11,12,13,25,40,58,69,84,95,124,138,176,199,224,238,278},{0,1,2,3,4,5,6,7,8,10,11,12,13,43,60,72,85,98,115,127,149,189,279},{0,1,2,3,4,5,6,7,8,9,11,12,13,27,61,86,99,150,162,190,213,226,252,265,280},{0,1,2,3,4,5,6,7,8,9,10,12,13,28,44,73,128,163,178,227,240,266},{0,1,2,3,4,5,6,7,8,9,10,11,13,30,46,101,116,152,165,179,201,254,268,282},{0,1,2,3,4,5,6,7,8,9,10,11,12,31,47,63,88,102,130,140,153,202,214,229,255,269,283},{0,15,16,17,18,19,20,21,22,23,24,25,26,27,28,29,30,31,32,48,64,75,103,117,131,166,180,191,215,230,270},{14,16,17,18,19,20,21,22,23,24,25,26,27,28,29,30,31,33,49,89,104,141,167,192,203,216,231,242},{1,14,15,17,18,19,20,21,22,23,24,25,26,27,28,29,30,31,34,76,105,118,181,193,204,232,256,271},{2,14,15,16,18,19,20,21,22,23,24,25,26,27,28,29,30,31,50,77,90,106,119,168,182,205,217,233,243,257},{3,14,15,16,17,19,20,21,22,23,24,25,26,27,28,29,30,31,35,51,78,91,107,120,132,154,169,183,194,206,218},{14,15,16,17,18,20,21,22,23,24,25,26,27,28,29,30,31,36,52,79,92,121,133,142,155,170,184,219,234,244,258,272},{4,14,15,16,17,18,19,21,22,23,24,25,26,27,28,29,30,31,53,65,80,108,122,134,143,156,185,195,207,220,245,259,273},{14,15,16,17,18,19,20,22,23,24,25,26,27,28,29,30,31,37,54,67,109,123,145,172,197,221,235,247,261,275},{6,14,15,16,17,18,19,20,21,23,24,25,26,27,28,29,30,31,38,55,68,82,110,135,158,173,186,209,222,236,248,262},{14,15,16,17,18,19,20,21,22,24,25,26,27,28,29,30,31,56,94,111,136,146,159,174,210,249,276},{7,14,15,16,17,18,19,20,21,22,23,25,26,27,28,29,30,31,39,57,83,112,137,147,175,187,198,211,223,237,277},{8,14,15,16,17,18,19,20,21,22,23,24,26,27,28,29,30,31,40,58,69,84,95,124,138,176,199,224,238,278},{14,15,16,17,18,19,20,21,22,23,24,25,27,28,29,30,31,41,70,96,113,125,139,160,177,188,250,263},{10,14,15,16,17,18,19,20,21,22,23,24,25,26,28,29,30,31,61,86,99,150,162,190,213,226,252,265,280},{11,14,15,16,17,18,19,20,21,22,23,24,25,26,27,29,30,31,44,73,128,163,178,227,240,266},{14,15,16,17,18,19,20,21,22,23,24,25,26,27,28,30,31,45,62,74,87,100,129,151,164,200,228,241,253,267,281},{12,14,15,16,17,18,19,20,21,22,23,24,25,26,27,28,29,31,46,101,116,152,165,179,201,254,268,282},{13,14,15,16,17,18,19,20,21,22,23,24,25,26,27,28,29,30,47,63,88,102,130,140,153,202,214,229,255,269,283},{0,14,33,34,35,36,37,38,39,40,41,42,43,44,45,46,47,48,64,75,103,117,131,166,180,191,215,230,270},{15,32,34,35,36,37,38,39,40,41,42,43,44,45,46,47,49,89,104,141,167,192,203,216,231,242},{1,16,32,33,35,36,37,38,39,40,41,42,43,44,45,46,47,76,105,118,181,193,204,232,256,271},{3,18,32,33,34,36,37,38,39,40,41,42,43,44,45,46,47,51,78,91,107,120,132,154,169,183,194,206,218},{19,32,33,34,35,37,38,39,40,41,42,43,44,45,46,47,52,79,92,121,133,142,155,170,184,219,234,244,258,272},{21,32,33,34,35,36,38,39,40,41,42,43,44,45,46,47,54,67,109,123,145,172,197,221,235,247,261,275},{6,22,32,33,34,35,36,37,39,40,41,42,43,44,45,46,47,55,68,82,110,135,158,173,186,209,222,236,248,262},{7,24,32,33,34,35,36,37,38,40,41,42,43,44,45,46,47,57,83,112,137,147,175,187,198,211,223,237,277},{8,25,32,33,34,35,36,37,38,39,41,42,43,44,45,46,47,58,69,84,95,124,138,176,199,224,238,278},{26,32,33,34,35,36,37,38,39,40,42,43,44,45,46,47,70,96,113,125,139,160,177,188,250,263},{32,33,34,35,36,37,38,39,40,41,43,44,45,46,47,59,71,97,114,126,148,161,212,225,239,251,264},{9,32,33,34,35,36,37,38,39,40,41,42,44,45,46,47,60,72,85,98,115,127,149,189,279},{11,28,32,33,34,35,36,37,38,39,40,41,42,43,45,46,47,73,128,163,178,227,240,266},{29,32,33,34,35,36,37,38,39,40,41,42,43,44,46,47,62,74,87,100,129,151,164,200,228,241,253,267,281},{12,30,32,33,34,35,36,37,38,39,40,41,42,43,44,45,47,101,116,152,165,179,201,254,268,282},{13,31,32,33,34,35,36,37,38,39,40,41,42,43,44,45,46,63,88,102,130,140,153,202,214,229,255,269,283},{0,14,32,49,50,51,52,53,54,55,56,57,58,59,60,61,62,63,64,75,103,117,131,166,180,191,215,230,270},{15,33,48,50,51,52,53,54,55,56,57,58,59,60,61,62,63,89,104,141,167,192,203,216,231,242},{2,17,48,49,51,52,53,54,55,56,57,58,59,60,61,62,63,77,90,106,119,168,182,205,217,233,243,257},{3,18,35,48,49,50,52,53,54,55,56,57,58,59,60,61,62,63,78,91,107,120,132,154,169,183,194,206,218},{19,36,48,49,50,51,53,54,55,56,57,58,59,60,61,62,63,79,92,121,133,142,155,170,184,219,234,244,258,272},{4,20,48,49,50,51,52,54,55,56,57,58,59,60,61,62,63,65,80,108,122,134,143,156,185,195,207,220,245,259,273},{21,37,48,49,50,51,52,53,55,56,57,58,59,60,61,62,63,67,109,123,145,172,197,221,235,247,261,275},{6,22,38,48,49,50,51,52,53,54,56,57,58,59,60,61,62,63,68,82,110,135,158,173,186,209,222,236,248,262},{23,48,49,50,51,52,53,54,55,57,58,59,60,61,62,63,94,111,136,146,159,174,210,249,276},{7,24,39,48,49,50,51,52,53,54,55,56,58,59,60,61,62,63,83,112,137,147,175,187,198,211,223,237,277},{8,25,40,48,49,50,51,52,53,54,55,56,57,59,60,61,62,63,69,84,95,124,138,176,199,224,238,278},{42,48,49,50,51,52,53,54,55,56,57,58,60,61,62,63,71,97,114,126,148,161,212,225,239,251,264},{9,43,48,49,50,51,52,53,54,55,56,57,58,59,61,62,63,72,85,98,115,127,149,189,279},{10,27,48,49,50,51,52,53,54,55,56,57,58,59,60,62,63,86,99,150,162,190,213,226,252,265,280},{29,45,48,49,50,51,52,53,54,55,56,57,58,59,60,61,63,74,87,100,129,151,164,200,228,241,253,267,281},{13,31,47,48,49,50,51,52,53,54,55,56,57,58,59,60,61,62,88,102,130,140,153,202,214,229,255,269,283},{0,14,32,48,65,66,67,68,69,70,71,72,73,74,75,103,117,131,166,180,191,215,230,270},{4,20,53,64,66,67,68,69,70,71,72,73,74,80,108,122,134,143,156,185,195,207,220,245,259,273},{5,64,65,67,68,69,70,71,72,73,74,81,93,144,157,171,196,208,246,260,274},{21,37,54,64,65,66,68,69,70,71,72,73,74,109,123,145,172,197,221,235,247,261,275},{6,22,38,55,64,65,66,67,69,70,71,72,73,74,82,110,135,158,173,186,209,222,236,248,262},{8,25,40,58,64,65,66,67,68,70,71,72,73,74,84,95,124,138,176,199,224,238,278},{26,41,64,65,66,67,68,69,71,72,73,74,96,113,125,139,160,177,188,250,263},{42,59,64,65,66,67,68,69,70,72,73,74,97,114,126,148,161,212,225,239,251,264},{9,43,60,64,65,66,67,68,69,70,71,73,74,85,98,115,127,149,189,279},{11,28,44,64,65,66,67,68,69,70,71,72,74,128,163,178,227,240,266},{29,45,62,64,65,66,67,68,69,70,71,72,73,87,100,129,151,164,200,228,241,253,267,281},{0,14,32,48,64,76,77,78,79,80,81,82,83,84,85,86,87,88,103,117,131,166,180,191,215,230,270},{1,16,34,75,77,78,79,80,81,82,83,84,85,86,87,88,105,118,181,193,204,232,256,271},{2,17,50,75,76,78,79,80,81,82,83,84,85,86,87,88,90,106,119,168,182,205,217,233,243,257},{3,18,35,51,75,76,77,79,80,81,82,83,84,85,86,87,88,91,107,120,132,154,169,183,194,206,218},{19,36,52,75,76,77,78,80,81,82,83,84,85,86,87,88,92,121,133,142,155,170,184,219,234,244,258,272},{4,20,53,65,75,76,77,78,79,81,82,83,84,85,86,87,88,108,122,134,143,156,185,195,207,220,245,259,273},{5,66,75,76,77,78,79,80,82,83,84,85,86,87,88,93,144,157,171,196,208,246,260,274},{6,22,38,55,68,75,76,77,78,79,80,81,83,84,85,86,87,88,110,135,158,173,186,209,222,236,248,262},{7,24,39,57,75,76,77,78,79,80,81,82,84,85,86,87,88,112,137,147,175,187,198,211,223,237,277},{8,25,40,58,69,75,76,77,78,79,80,81,82,83,85,86,87,88,95,124,138,176,199,224,238,278},{9,43,60,72,75,76,77,78,79,80,81,82,83,84,86,87,88,98,115,127,149,189,279},{10,27,61,75,76,77,78,79,80,81,82,83,84,85,87,88,99,150,162,190,213,226,252,265,280},{29,45,62,74,75,76,77,78,79,80,81,82,83,84,85,86,88,100,129,151,164,200,228,241,253,267,281},{13,31,47,63,75,76,77,78,79,80,81,82,83,84,85,86,87,102,130,140,153,202,214,229,255,269,283},{15,33,49,90,91,92,93,94,95,96,97,98,99,100,101,102,104,141,167,192,203,216,231,242},{2,17,50,77,89,91,92,93,94,95,96,97,98,99,100,101,102,106,119,168,182,205,217,233,243,257},{3,18,35,51,78,89,90,92,93,94,95,96,97,98,99,100,101,102,107,120,132,154,169,183,194,206,218},{19,36,52,79,89,90,91,93,94,95,96,97,98,99,100,101,102,121,133,142,155,170,184,219,234,244,258,272},{5,66,81,89,90,91,92,94,95,96,97,98,99,100,101,102,144,157,171,196,208,246,260,274},{23,56,89,90,91,92,93,95,96,97,98,99,100,101,102,111,136,146,159,174,210,249,276},{8,25,40,58,69,84,89,90,91,92,93,94,96,97,98,99,100,101,102,124,138,176,199,224,238,278},{26,41,70,89,90,91,92,93,94,95,97,98,99,100,101,102,113,125,139,160,177,188,250,263},{42,59,71,89,90,91,92,93,94,95,96,98,99,100,101,102,114,126,148,161,212,225,239,251,264},{9,43,60,72,85,89,90,91,92,93,94,95,96,97,99,100,101,102,115,127,149,189,279},{10,27,61,86,89,90,91,92,93,94,95,96,97,98,100,101,102,150,162,190,213,226,252,265,280},{29,45,62,74,87,89,90,91,92,93,94,95,96,97,98,99,101,102,129,151,164,200,228,241,253,267,281},{12,30,46,89,90,91,92,93,94,95,96,97,98,99,100,102,116,152,165,179,201,254,268,282},{13,31,47,63,88,89,90,91,92,93,94,95,96,97,98,99,100,101,130,140,153,202,214,229,255,269,283},{0,14,32,48,64,75,104,105,106,107,108,109,110,111,112,113,114,115,116,117,131,166,180,191,215,230,270},{15,33,49,89,103,105,106,107,108,109,110,111,112,113,114,115,116,141,167,192,203,216,231,242},{1,16,34,76,103,104,106,107,108,109,110,111,112,113,114,115,116,118,181,193,204,232,256,271},{2,17,50,77,90,103,104,105,107,108,109,110,111,112,113,114,115,116,119,168,182,205,217,233,243,257},{3,18,35,51,78,91,103,104,105,106,108,109,110,111,112,113,114,115,116,120,132,154,169,183,194,206,218},{4,20,53,65,80,103,104,105,106,107,109,110,111,112,113,114,115,116,122,134,143,156,185,195,207,220,245,259,273},{21,37,54,67,103,104,105,106,107,108,110,111,112,113,114,115,116,123,145,172,197,221,235,247,261,275},{6,22,38,55,68,82,103,104,105,106,107,108,109,111,112,113,114,115,116,135,158,173,186,209,222,236,248,262},{23,56,94,103,104,105,106,107,108,109,110,112,113,114,115,116,136,146,159,174,210,249,276},{7,24,39,57,83,103,104,105,106,107,108,109,110,111,113,114,115,116,137,147,175,187,198,211,223,237,277},{26,41,70,96,103,104,105,106,107,108,109,110,111,112,114,115,116,125,139,160,177,188,250,263},{42,59,71,97,103,104,105,106,107,108,109,110,111,112,113,115,116,126,148,161,212,225,239,251,264},{9,43,60,72,85,98,103,104,105,106,107,108,109,110,111,112,113,114,116,127,149,189,279},{12,30,46,101,103,104,105,106,107,108,109,110,111,112,113,114,115,152,165,179,201,254,268,282},{0,14,32,48,64,75,103,118,119,120,121,122,123,124,125,126,127,128,129,130,131,166,180,191,215,230,270},{1,16,34,76,105,117,119,120,121,122,123,124,125,126,127,128,129,130,181,193,204,232,256,271},{2,17,50,77,90,106,117,118,120,121,122,123,124,125,126,127,128,129,130,168,182,205,217,233,243,257},{3,18,35,51,78,91,107,117,118,119,121,122,123,124,125,126,127,128,129,130,132,154,169,183,194,206,218},{19,36,52,79,92,117,118,119,120,122,123,124,125,126,127,128,129,130,133,142,155,170,184,219,234,244,258,272},{4,20,53,65,80,108,117,118,119,120,121,123,124,125,126,127,128,129,130,134,143,156,185,195,207,220,245,259,273},{21,37,54,67,109,117,118,119,120,121,122,124,125,126,127,128,129,130,145,172,197,221,235,247,261,275},{8,25,40,58,69,84,95,117,118,119,120,121,122,123,125,126,127,128,129,130,138,176,199,224,238,278},{26,41,70,96,113,117,118,119,120,121,122,123,124,126,127,128,129,130,139,160,177,188,250,263},{42,59,71,97,114,117,118,119,120,121,122,123,124,125,127,128,129,130,148,161,212,225,239,251,264},{9,43,60,72,85,98,115,117,118,119,120,121,122,123,124,125,126,128,129,130,149,189,279},{11,28,44,73,117,118,119,120,121,122,123,124,125,126,127,129,130,163,178,227,240,266},{29,45,62,74,87,100,117,118,119,120,121,122,123,124,125,126,127,128,130,151,164,200,228,241,253,267,281},{13,31,47,63,88,102,117,118,119,120,121,122,123,124,125,126,127,128,129,140,153,202,214,229,255,269,283},{0,14,32,48,64,75,103,117,132,133,134,135,136,137,138,139,140,166,180,191,215,230,270},{3,18,35,51,78,91,107,120,131,133,134,135,136,137,138,139,140,154,169,183,194,206,218},{19,36,52,79,92,121,131,132,134,135,136,137,138,139,140,142,155,170,184,219,234,244,258,272},{4,20,53,65,80,108,122,131,132,133,135,136,137,138,139,140,143,156,185,195,207,220,245,259,273},{6,22,38,55,68,82,110,131,132,133,134,136,137,138,139,140,158,173,186,209,222,236,248,262},{23,56,94,111,131,132,133,134,135,137,138,139,140,146,159,174,210,249,276},{7,24,39,57,83,112,131,132,133,134,135,136,138,139,140,147,175,187,198,211,223,237,277},{8,25,40,58,69,84,95,124,131,132,133,134,135,136,137,139,140,176,199,224,238,278},{26,41,70,96,113,125,131,132,133,134,135,136,137,138,140,160,177,188,250,263},{13,31,47,63,88,102,130,131,132,133,134,135,136,137,138,139,153,202,214,229,255,269,283},{15,33,49,89,104,142,143,144,145,146,147,148,149,150,151,152,153,167,192,203,216,231,242},{19,36,52,79,92,121,133,141,143,144,145,146,147,148,149,150,151,152,153,155,170,184,219,234,244,258,272},{4,20,53,65,80,108,122,134,141,142,144,145,146,147,148,149,150,151,152,153,156,185,195,207,220,245,259,273},{5,66,81,93,141,142,143,145,146,147,148,149,150,151,152,153,157,171,196,208,246,260,274},{21,37,54,67,109,123,141,142,143,144,146,147,148,149,150,151,152,153,172,197,221,235,247,261,275},{23,56,94,111,136,141,142,143,144,145,147,148,149,150,151,152,153,159,174,210,249,276},{7,24,39,57,83,112,137,141,142,143,144,145,146,148,149,150,151,152,153,175,187,198,211,223,237,277},{42,59,71,97,114,126,141,142,143,144,145,146,147,149,150,151,152,153,161,212,225,239,251,264},{9,43,60,72,85,98,115,127,141,142,143,144,145,146,147,148,150,151,152,153,189,279},{10,27,61,86,99,141,142,143,144,145,146,147,148,149,151,152,153,162,190,213,226,252,265,280},{29,45,62,74,87,100,129,141,142,143,144,145,146,147,148,149,150,152,153,164,200,228,241,253,267,281},{12,30,46,101,116,141,142,143,144,145,146,147,148,149,150,151,153,165,179,201,254,268,282},{13,31,47,63,88,102,130,140,141,142,143,144,145,146,147,148,149,150,151,152,202,214,229,255,269,283},{3,18,35,51,78,91,107,120,132,155,156,157,158,159,160,161,162,163,164,165,169,183,194,206,218},{19,36,52,79,92,121,133,142,154,156,157,158,159,160,161,162,163,164,165,170,184,219,234,244,258,272},{4,20,53,65,80,108,122,134,143,154,155,157,158,159,160,161,162,163,164,165,185,195,207,220,245,259,273},{5,66,81,93,144,154,155,156,158,159,160,161,162,163,164,165,171,196,208,246,260,274},{6,22,38,55,68,82,110,135,154,155,156,157,159,160,161,162,163,164,165,173,186,209,222,236,248,262},{23,56,94,111,136,146,154,155,156,157,158,160,161,162,163,164,165,174,210,249,276},{26,41,70,96,113,125,139,154,155,156,157,158,159,161,162,163,164,165,177,188,250,263},{42,59,71,97,114,126,148,154,155,156,157,158,159,160,162,163,164,165,212,225,239,251,264},{10,27,61,86,99,150,154,155,156,157,158,159,160,161,163,164,165,190,213,226,252,265,280},{11,28,44,73,128,154,155,156,157,158,159,160,161,162,164,165,178,227,240,266},{29,45,62,74,87,100,129,151,154,155,156,157,158,159,160,161,162,163,165,200,228,241,253,267,281},{12,30,46,101,116,152,154,155,156,157,158,159,160,161,162,163,164,179,201,254,268,282},{0,14,32,48,64,75,103,117,131,167,168,169,170,171,172,173,174,175,176,177,178,179,180,191,215,230,270},{15,33,49,89,104,141,166,168,169,170,171,172,173,174,175,176,177,178,179,192,203,216,231,242},{2,17,50,77,90,106,119,166,167,169,170,171,172,173,174,175,176,177,178,179,182,205,217,233,243,257},{3,18,35,51,78,91,107,120,132,154,166,167,168,170,171,172,173,174,175,176,177,178,179,183,194,206,218},{19,36,52,79,92,121,133,142,155,166,167,168,169,171,172,173,174,175,176,177,178,179,184,219,234,244,258,272},{5,66,81,93,144,157,166,167,168,169,170,172,173,174,175,176,177,178,179,196,208,246,260,274},{21,37,54,67,109,123,145,166,167,168,169,170,171,173,174,175,176,177,178,179,197,221,235,247,261,275},{6,22,38,55,68,82,110,135,158,166,167,168,169,170,171,172,174,175,176,177,178,179,186,209,222,236,248,262},{23,56,94,111,136,146,159,166,167,168,169,170,171,172,173,175,176,177,178,179,210,249,276},{7,24,39,57,83,112,137,147,166,167,168,169,170,171,172,173,174,176,177,178,179,187,198,211,223,237,277},{8,25,40,58,69,84,95,124,138,166,167,168,169,170,171,172,173,174,175,177,178,179,199,224,238,278},{26,41,70,96,113,125,139,160,166,167,168,169,170,171,172,173,174,175,176,178,179,188,250,263},{11,28,44,73,128,163,166,167,168,169,170,171,172,173,174,175,176,177,179,227,240,266},{12,30,46,101,116,152,165,166,167,168,169,170,171,172,173,174,175,176,177,178,201,254,268,282},{0,14,32,48,64,75,103,117,131,166,181,182,183,184,185,186,187,188,189,190,191,215,230,270},{1,16,34,76,105,118,180,182,183,184,185,186,187,188,189,190,193,204,232,256,271},{2,17,50,77,90,106,119,168,180,181,183,184,185,186,187,188,189,190,205,217,233,243,257},{3,18,35,51,78,91,107,120,132,154,169,180,181,182,184,185,186,187,188,189,190,194,206,218},{19,36,52,79,92,121,133,142,155,170,180,181,182,183,185,186,187,188,189,190,219,234,244,258,272},{4,20,53,65,80,108,122,134,143,156,180,181,182,183,184,186,187,188,189,190,195,207,220,245,259,273},{6,22,38,55,68,82,110,135,158,173,180,181,182,183,184,185,187,188,189,190,209,222,236,248,262},{7,24,39,57,83,112,137,147,175,180,181,182,183,184,185,186,188,189,190,198,211,223,237,277},{26,41,70,96,113,125,139,160,177,180,181,182,183,184,185,186,187,189,190,250,263},{9,43,60,72,85,98,115,127,149,180,181,182,183,184,185,186,187,188,190,279},{10,27,61,86,99,150,162,180,181,182,183,184,185,186,187,188,189,213,226,252,265,280},{0,14,32,48,64,75,103,117,131,166,180,192,193,194,195,196,197,198,199,200,201,202,215,230,270},{15,33,49,89,104,141,167,191,193,194,195,196,197,198,199,200,201,202,203,216,231,242},{1,16,34,76,105,118,181,191,192,194,195,196,197,198,199,200,201,202,204,232,256,271},{3,18,35,51,78,91,107,120,132,154,169,183,191,192,193,195,196,197,198,199,200,201,202,206,218},{4,20,53,65,80,108,122,134,143,156,185,191,192,193,194,196,197,198,199,200,201,202,207,220,245,259,273},{5,66,81,93,144,157,171,191,192,193,194,195,197,198,199,200,201,202,208,246,260,274},{21,37,54,67,109,123,145,172,191,192,193,194,195,196,198,199,200,201,202,221,235,247,261,275},{7,24,39,57,83,112,137,147,175,187,191,192,193,194,195,196,197,199,200,201,202,211,223,237,277},{8,25,40,58,69,84,95,124,138,176,191,192,193,194,195,196,197,198,200,201,202,224,238,278},{29,45,62,74,87,100,129,151,164,191,192,193,194,195,196,197,198,199,201,202,228,241,253,267,281},{12,30,46,101,116,152,165,179,191,192,193,194,195,196,197,198,199,200,202,254,268,282},{13,31,47,63,88,102,130,140,153,191,192,193,194,195,196,197,198,199,200,201,214,229,255,269,283},{15,33,49,89,104,141,167,192,204,205,206,207,208,209,210,211,212,213,214,216,231,242},{1,16,34,76,105,118,181,193,203,205,206,207,208,209,210,211,212,213,214,232,256,271},{2,17,50,77,90,106,119,168,182,203,204,206,207,208,209,210,211,212,213,214,217,233,243,257},{3,18,35,51,78,91,107,120,132,154,169,183,194,203,204,205,207,208,209,210,211,212,213,214,218},{4,20,53,65,80,108,122,134,143,156,185,195,203,204,205,206,208,209,210,211,212,213,214,220,245,259,273},{5,66,81,93,144,157,171,196,203,204,205,206,207,209,210,211,212,213,214,246,260,274},{6,22,38,55,68,82,110,135,158,173,186,203,204,205,206,207,208,210,211,212,213,214,222,236,248,262},{23,56,94,111,136,146,159,174,203,204,205,206,207,208,209,211,212,213,214,249,276},{7,24,39,57,83,112,137,147,175,187,198,203,204,205,206,207,208,209,210,212,213,214,223,237,277},{42,59,71,97,114,126,148,161,203,204,205,206,207,208,209,210,211,213,214,225,239,251,264},{10,27,61,86,99,150,162,190,203,204,205,206,207,208,209,210,211,212,214,226,252,265,280},{13,31,47,63,88,102,130,140,153,202,203,204,205,206,207,208,209,210,211,212,213,229,255,269,283},{0,14,32,48,64,75,103,117,131,166,180,191,216,217,218,219,220,221,222,223,224,225,226,227,228,229,230,270},{15,33,49,89,104,141,167,192,203,215,217,218,219,220,221,222,223,224,225,226,227,228,229,231,242},{2,17,50,77,90,106,119,168,182,205,215,216,218,219,220,221,222,223,224,225,226,227,228,229,233,243,257},{3,18,35,51,78,91,107,120,132,154,169,183,194,206,215,216,217,219,220,221,222,223,224,225,226,227,228,229},{19,36,52,79,92,121,133,142,155,170,184,215,216,217,218,220,221,222,223,224,225,226,227,228,229,234,244,258,272},{4,20,53,65,80,108,122,134,143,156,185,195,207,215,216,217,218,219,221,222,223,224,225,226,227,228,229,245,259,273},{21,37,54,67,109,123,145,172,197,215,216,217,218,219,220,222,223,224,225,226,227,228,229,235,247,261,275},{6,22,38,55,68,82,110,135,158,173,186,209,215,216,217,218,219,220,221,223,224,225,226,227,228,229,236,248,262},{7,24,39,57,83,112,137,147,175,187,198,211,215,216,217,218,219,220,221,222,224,225,226,227,228,229,237,277},{8,25,40,58,69,84,95,124,138,176,199,215,216,217,218,219,220,221,222,223,225,226,227,228,229,238,278},{42,59,71,97,114,126,148,161,212,215,216,217,218,219,220,221,222,223,224,226,227,228,229,239,251,264},{10,27,61,86,99,150,162,190,213,215,216,217,218,219,220,221,222,223,224,225,227,228,229,252,265,280},{11,28,44,73,128,163,178,215,216,217,218,219,220,221,222,223,224,225,226,228,229,240,266},{29,45,62,74,87,100,129,151,164,200,215,216,217,218,219,220,221,222,223,224,225,226,227,229,241,253,267,281},{13,31,47,63,88,102,130,140,153,202,214,215,216,217,218,219,220,221,222,223,224,225,226,227,228,255,269,283},{0,14,32,48,64,75,103,117,131,166,180,191,215,231,232,233,234,235,236,237,238,239,240,241,270},{15,33,49,89,104,141,167,192,203,216,230,232,233,234,235,236,237,238,239,240,241,242},{1,16,34,76,105,118,181,193,204,230,231,233,234,235,236,237,238,239,240,241,256,271},{2,17,50,77,90,106,119,168,182,205,217,230,231,232,234,235,236,237,238,239,240,241,243,257},{19,36,52,79,92,121,133,142,155,170,184,219,230,231,232,233,235,236,237,238,239,240,241,244,258,272},{21,37,54,67,109,123,145,172,197,221,230,231,232,233,234,236,237,238,239,240,241,247,261,275},{6,22,38,55,68,82,110,135,158,173,186,209,222,230,231,232,233,234,235,237,238,239,240,241,248,262},{7,24,39,57,83,112,137,147,175,187,198,211,223,230,231,232,233,234,235,236,238,239,240,241,277},{8,25,40,58,69,84,95,124,138,176,199,224,230,231,232,233,234,235,236,237,239,240,241,278},{42,59,71,97,114,126,148,161,212,225,230,231,232,233,234,235,236,237,238,240,241,251,264},{11,28,44,73,128,163,178,227,230,231,232,233,234,235,236,237,238,239,241,266},{29,45,62,74,87,100,129,151,164,200,228,230,231,232,233,234,235,236,237,238,239,240,253,267,281},{15,33,49,89,104,141,167,192,203,216,231,243,244,245,246,247,248,249,250,251,252,253,254,255},{2,17,50,77,90,106,119,168,182,205,217,233,242,244,245,246,247,248,249,250,251,252,253,254,255,257},{19,36,52,79,92,121,133,142,155,170,184,219,234,242,243,245,246,247,248,249,250,251,252,253,254,255,258,272},{4,20,53,65,80,108,122,134,143,156,185,195,207,220,242,243,244,246,247,248,249,250,251,252,253,254,255,259,273},{5,66,81,93,144,157,171,196,208,242,243,244,245,247,248,249,250,251,252,253,254,255,260,274},{21,37,54,67,109,123,145,172,197,221,235,242,243,244,245,246,248,249,250,251,252,253,254,255,261,275},{6,22,38,55,68,82,110,135,158,173,186,209,222,236,242,243,244,245,246,247,249,250,251,252,253,254,255,262},{23,56,94,111,136,146,159,174,210,242,243,244,245,246,247,248,250,251,252,253,254,255,276},{26,41,70,96,113,125,139,160,177,188,242,243,244,245,246,247,248,249,251,252,253,254,255,263},{42,59,71,97,114,126,148,161,212,225,239,242,243,244,245,246,247,248,249,250,252,253,254,255,264},{10,27,61,86,99,150,162,190,213,226,242,243,244,245,246,247,248,249,250,251,253,254,255,265,280},{29,45,62,74,87,100,129,151,164,200,228,241,242,243,244,245,246,247,248,249,250,251,252,254,255,267,281},{12,30,46,101,116,152,165,179,201,242,243,244,245,246,247,248,249,250,251,252,253,255,268,282},{13,31,47,63,88,102,130,140,153,202,214,229,242,243,244,245,246,247,248,249,250,251,252,253,254,269,283},{1,16,34,76,105,118,181,193,204,232,257,258,259,260,261,262,263,264,265,266,267,268,269,271},{2,17,50,77,90,106,119,168,182,205,217,233,243,256,258,259,260,261,262,263,264,265,266,267,268,269},{19,36,52,79,92,121,133,142,155,170,184,219,234,244,256,257,259,260,261,262,263,264,265,266,267,268,269,272},{4,20,53,65,80,108,122,134,143,156,185,195,207,220,245,256,257,258,260,261,262,263,264,265,266,267,268,269,273},{5,66,81,93,144,157,171,196,208,246,256,257,258,259,261,262,263,264,265,266,267,268,269,274},{21,37,54,67,109,123,145,172,197,221,235,247,256,257,258,259,260,262,263,264,265,266,267,268,269,275},{6,22,38,55,68,82,110,135,158,173,186,209,222,236,248,256,257,258,259,260,261,263,264,265,266,267,268,269},{26,41,70,96,113,125,139,160,177,188,250,256,257,258,259,260,261,262,264,265,266,267,268,269},{42,59,71,97,114,126,148,161,212,225,239,251,256,257,258,259,260,261,262,263,265,266,267,268,269},{10,27,61,86,99,150,162,190,213,226,252,256,257,258,259,260,261,262,263,264,266,267,268,269,280},{11,28,44,73,128,163,178,227,240,256,257,258,259,260,261,262,263,264,265,267,268,269},{29,45,62,74,87,100,129,151,164,200,228,241,253,256,257,258,259,260,261,262,263,264,265,266,268,269,281},{12,30,46,101,116,152,165,179,201,254,256,257,258,259,260,261,262,263,264,265,266,267,269,282},{13,31,47,63,88,102,130,140,153,202,214,229,255,256,257,258,259,260,261,262,263,264,265,266,267,268,283},{0,14,32,48,64,75,103,117,131,166,180,191,215,230,271,272,273,274,275,276,277,278,279,280,281,282,283},{1,16,34,76,105,118,181,193,204,232,256,270,272,273,274,275,276,277,278,279,280,281,282,283},{19,36,52,79,92,121,133,142,155,170,184,219,234,244,258,270,271,273,274,275,276,277,278,279,280,281,282,283},{4,20,53,65,80,108,122,134,143,156,185,195,207,220,245,259,270,271,272,274,275,276,277,278,279,280,281,282,283},{5,66,81,93,144,157,171,196,208,246,260,270,271,272,273,275,276,277,278,279,280,281,282,283},{21,37,54,67,109,123,145,172,197,221,235,247,261,270,271,272,273,274,276,277,278,279,280,281,282,283},{23,56,94,111,136,146,159,174,210,249,270,271,272,273,274,275,277,278,279,280,281,282,283},{7,24,39,57,83,112,137,147,175,187,198,211,223,237,270,271,272,273,274,275,276,278,279,280,281,282,283},{8,25,40,58,69,84,95,124,138,176,199,224,238,270,271,272,273,274,275,276,277,279,280,281,282,283},{9,43,60,72,85,98,115,127,149,189,270,271,272,273,274,275,276,277,278,280,281,282,283},{10,27,61,86,99,150,162,190,213,226,252,265,270,271,272,273,274,275,276,277,278,279,281,282,283},{29,45,62,74,87,100,129,151,164,200,228,241,253,267,270,271,272,273,274,275,276,277,278,279,280,282,283},{12,30,46,101,116,152,165,179,201,254,268,270,271,272,273,274,275,276,277,278,279,280,281,283},{13,31,47,63,88,102,130,140,153,202,214,229,255,269,270,271,272,273,274,275,276,277,278,279,280,281,282}];
weights=[378,408,205,672,642,593,470,504,269,531,382,241,676,439,573,366,265,549,371,367,430,248,429,501,430,255,226,318,429,603,647,610,636,563,233,616,535,606,625,507,356,368,558,593,287,406,256,397,209,537,524,589,284,619,649,563,271,311,442,680,296,410,551,562,597,645,576,514,704,499,532,466,534,501,696,562,451,274,314,659,360,647,263,354,493,289,295,312,468,574,351,279,643,660,201,371,496,554,452,689,540,435,408,426,364,274,393,280,491,330,287,414,441,241,561,660,207,527,566,286,239,465,502,560,458,631,501,684,343,336,363,463,391,526,333,545,552,594,474,428,364,597,206,421,566,458,315,289,671,631,676,516,256,379,397,396,607,560,491,613,570,345,530,554,570,322,657,261,370,255,317,626,348,413,600,655,495,608,497,325,324,468,386,391,563,589,453,305,497,205,643,239,605,218,641,230,228,437,577,292,231,614,444,582,285,672,395,334,666,610,622,577,250,265,218,268,567,290,239,551,526,446,471,629,330,334,515,443,287,578,221,352,241,636,341,223,290,326,537,619,312,294,513,563,544,674,512,261,589,540,480,367,524,604,374,234,620,528,603,241,502,640,448,263,240,388,208,470,487,481,211,448,694,497,347,617,288,663,279,703,441,363,253,684];
